177
1925
131
0 2
0 6
0 9
0 78
0 87
0 88
0 90
0 102
0 155
1 3
1 5
1 11
1 142
2 3
2 6
2 9
2 17
2 24
2 26
2 36
2 78
2 87
2 88
2 90
2 102
2 155
3 5
3 6
3 9
3 11
3 17
3 24
3 26
3 27
3 36
3 64
3 88
3 90
3 101
3 127
3 141
3 142
3 154
4 7
4 8
4 10
4 12
4 13
4 19
4 20
4 22
4 25
4 31
4 34
4 37
4 44
4 68
4 76
4 77
4 79
4 80
4 82
4 84
4 86
4 89
4 91
4 92
4 94
4 103
4 118
4 145
4 160
5 11
5 18
5 21
5 23
5 28
5 29
5 30
5 32
5 33
5 35
5 38
5 52
5 65
5 66
5 67
5 113
5 115
5 117
5 119
5 142
5 161
5 170
5 172
6 9
6 17
6 24
6 26
6 36
6 42
6 43
6 45
6 47
6 54
6 56
6 59
6 60
6 78
6 80
6 82
6 84
6 87
6 88
6 90
6 92
6 102
6 104
6 132
6 134
6 144
6 155
7 8
7 10
7 12
7 13
7 19
7 20
7 22
7 25
7 31
7 34
7 37
7 44
7 68
8 10
8 12
8 13
8 19
8 20
8 22
8 25
8 31
8 34
8 37
8 44
8 61
8 68
8 83
8 93
8 95
8 96
8 97
8 98
8 104
8 109
8 110
8 114
8 122
8 140
8 144
8 148
8 159
8 164
8 167
9 17
9 24
9 26
9 36
9 46
9 48
9 49
9 50
9 51
9 62
9 78
9 87
9 88
9 90
9 102
9 155
10 12
10 13
10 19
10 20
10 22
10 25
10 31
10 34
10 37
10 44
10 61
10 68
10 83
10 93
10 95
10 96
10 97
10 98
10 104
10 109
10 110
10 114
10 122
10 159
10 164
11 18
11 21
11 23
11 26
11 28
11 29
11 30
11 32
11 33
11 35
11 38
11 50
11 52
11 62
11 70
11 73
11 74
11 84
11 107
11 121
11 136
11 142
11 149
11 171
11 176
12 13
12 19
12 20
12 22
12 25
12 31
12 34
12 37
12 44
12 49
12 61
12 68
12 83
12 93
12 95
12 96
12 97
12 98
12 108
12 123
12 124
12 150
13 19
13 20
13 22
13 25
13 31
13 34
13 37
13 44
13 49
13 61
13 68
13 83
13 93
13 95
13 96
13 97
13 98
13 108
13 123
13 124
13 150
13 152
13 154
13 156
13 157
13 158
13 161
13 165
14 19
14 20
14 22
14 25
14 39
14 44
14 76
15 16
15 18
15 21
15 23
15 31
15 34
15 37
15 41
15 52
15 53
15 63
15 68
15 99
15 112
15 125
15 152
15 166
16 18
16 21
16 23
16 41
16 52
16 53
16 125
17 24
17 26
17 36
17 42
17 43
17 45
17 47
17 88
17 90
17 104
17 132
17 134
17 144
18 21
18 23
18 28
18 29
18 30
18 32
18 33
18 35
18 38
18 41
18 52
18 53
18 125
19 20
19 22
19 25
19 31
19 34
19 37
19 39
19 44
19 68
19 76
19 86
19 89
19 91
19 92
19 94
19 103
19 118
19 145
19 160
20 22
20 25
20 31
20 34
20 37
20 39
20 44
20 68
20 76
21 23
21 28
21 29
21 30
21 32
21 33
21 35
21 38
21 41
21 47
21 52
21 53
21 59
21 60
21 69
21 71
21 72
21 82
21 111
21 114
21 118
21 120
21 122
21 123
21 124
21 125
21 134
22 25
22 31
22 34
22 37
22 39
22 44
22 61
22 68
22 76
22 83
22 93
22 95
22 96
22 97
22 98
23 28
23 29
23 30
23 32
23 33
23 35
23 38
23 41
23 47
23 52
23 53
23 59
23 60
23 69
23 71
23 72
23 82
23 125
23 134
24 26
24 36
24 46
24 48
24 49
24 50
24 51
24 62
24 88
24 90
25 31
25 34
25 37
25 39
25 44
25 49
25 61
25 68
25 76
25 83
25 93
25 95
25 96
25 97
25 98
25 108
25 123
25 124
25 150
26 36
26 46
26 48
26 49
26 50
26 51
26 62
26 70
26 88
26 90
26 127
26 130
26 136
26 138
26 149
26 171
26 176
27 36
27 64
27 101
27 127
27 141
27 154
28 29
28 30
28 32
28 33
28 35
28 38
28 52
28 53
28 55
28 62
28 65
28 66
28 67
28 76
28 77
28 86
28 89
28 113
28 115
28 117
28 119
28 161
28 170
28 172
29 30
29 32
29 33
29 35
29 38
29 52
29 65
29 66
29 67
29 113
29 115
29 117
29 119
29 161
29 170
29 172
30 32
30 33
30 35
30 38
30 52
31 34
31 37
31 44
31 63
31 68
31 99
31 112
31 125
31 152
31 166
32 33
32 35
32 38
32 46
32 49
32 52
32 70
32 73
32 74
32 84
32 107
32 121
32 126
32 131
32 133
32 135
32 139
32 142
32 145
32 146
32 147
32 150
32 167
32 174
33 35
33 38
33 47
33 52
33 59
33 60
33 69
33 71
33 72
33 82
33 134
34 37
34 44
34 61
34 63
34 68
34 83
34 93
34 95
34 96
34 97
34 98
34 99
34 101
34 105
34 107
34 112
34 125
34 135
34 147
34 152
34 163
34 166
35 38
35 52
35 70
35 73
35 74
35 84
35 107
35 108
35 121
35 157
35 168
35 169
35 173
35 175
36 46
36 48
36 49
36 50
36 51
36 62
36 64
36 88
36 90
36 101
36 127
36 141
36 154
37 44
37 61
37 63
37 68
37 83
37 93
37 95
37 96
37 97
37 98
37 99
37 104
37 109
37 110
37 112
37 114
37 122
37 125
37 152
37 159
37 164
37 166
38 52
38 70
38 73
38 74
38 84
38 107
38 121
38 167
38 174
39 40
39 41
39 44
39 52
39 53
39 76
39 77
39 86
39 125
39 128
39 140
39 167
39 168
40 41
40 44
40 52
40 53
40 76
40 77
40 86
40 125
40 128
40 140
40 167
40 168
41 44
41 52
41 53
41 76
41 77
41 86
41 125
41 128
41 140
41 167
41 168
42 43
42 45
42 47
42 90
42 104
42 132
42 134
42 144
43 45
43 47
43 57
43 58
43 61
43 67
43 90
43 104
43 117
43 119
43 132
43 134
43 144
43 161
43 170
43 172
44 52
44 53
44 68
44 76
44 77
44 86
44 89
44 91
44 92
44 94
44 103
44 118
44 125
44 128
44 140
44 145
44 160
44 167
44 168
45 47
45 57
45 58
45 61
45 67
45 75
45 78
45 81
45 83
45 90
45 104
45 117
45 119
45 132
45 134
45 144
45 161
45 170
45 172
46 48
46 49
46 50
46 51
46 62
46 126
46 131
46 133
46 135
46 137
46 139
46 142
46 145
46 146
46 147
46 150
46 175
47 54
47 56
47 59
47 60
47 69
47 71
47 72
47 80
47 82
47 84
47 90
47 92
47 104
47 132
47 134
47 144
48 49
48 50
48 51
48 62
49 50
49 51
49 62
49 93
49 98
49 108
49 123
49 124
49 126
49 131
49 133
49 135
49 137
49 139
49 142
49 145
49 146
49 147
49 150
49 175
50 51
50 62
50 70
50 127
50 130
50 136
50 138
50 149
50 171
50 176
51 62
51 127
51 130
51 136
51 138
52 53
52 70
52 73
52 74
52 76
52 77
52 84
52 86
52 107
52 121
52 125
52 128
52 140
52 167
52 168
53 55
53 62
53 65
53 76
53 77
53 86
53 89
53 113
53 125
53 128
53 140
53 167
53 168
54 56
54 59
54 60
54 63
54 64
54 68
54 80
54 82
54 84
54 92
54 99
54 101
54 112
54 127
54 134
54 141
54 143
54 152
54 154
54 156
54 166
55 62
55 65
55 76
55 77
55 86
55 89
55 113
56 59
56 60
56 80
56 82
56 84
56 92
56 134
57 58
57 61
57 67
57 117
57 119
57 132
57 161
57 170
57 172
58 61
58 67
58 75
58 78
58 81
58 83
58 117
58 119
58 132
58 161
58 170
58 172
59 60
59 69
59 71
59 72
59 80
59 82
59 84
59 92
59 111
59 114
59 118
59 120
59 122
59 123
59 124
59 134
60 69
60 71
60 72
60 80
60 82
60 84
60 92
60 134
61 67
61 75
61 78
61 81
61 83
61 93
61 95
61 96
61 97
61 98
61 99
61 101
61 105
61 107
61 117
61 119
61 132
61 135
61 147
61 161
61 163
61 170
61 172
62 65
62 70
62 76
62 77
62 86
62 89
62 113
62 127
62 130
62 136
62 138
62 149
62 171
62 176
63 64
63 68
63 99
63 101
63 112
63 125
63 127
63 141
63 143
63 152
63 154
63 156
63 166
64 68
64 99
64 101
64 112
64 127
64 141
64 143
64 152
64 154
64 156
64 166
65 66
65 67
65 76
65 77
65 86
65 89
65 113
65 115
65 117
65 119
65 161
65 170
65 172
66 67
66 113
66 115
66 117
66 119
66 161
66 170
66 172
67 113
67 115
67 117
67 119
67 132
67 161
67 170
67 172
68 99
68 101
68 112
68 125
68 127
68 141
68 143
68 152
68 154
68 156
68 166
69 71
69 72
69 82
69 100
69 102
69 103
69 106
69 111
69 114
69 118
69 120
69 122
69 123
69 124
69 126
69 131
69 134
69 139
69 142
69 145
69 146
69 153
69 155
69 160
69 162
69 171
70 73
70 74
70 84
70 107
70 121
70 136
70 149
70 153
70 155
70 159
70 160
70 162
70 163
70 164
70 171
70 176
71 72
71 82
71 111
71 114
71 118
71 120
71 122
71 123
71 124
71 134
72 82
72 134
73 74
73 84
73 107
73 121
73 167
73 174
74 84
74 107
74 121
75 78
75 81
75 83
75 85
75 87
75 88
75 90
75 100
75 102
75 111
75 119
75 126
75 132
75 139
75 142
75 153
75 155
75 172
76 77
76 79
76 80
76 82
76 84
76 86
76 89
76 91
76 92
76 103
76 113
76 125
76 128
76 140
76 167
76 168
77 79
77 80
77 82
77 84
77 86
77 89
77 91
77 92
77 103
77 113
77 125
77 128
77 140
77 167
77 168
78 81
78 83
78 85
78 87
78 88
78 90
78 100
78 102
78 111
78 119
78 126
78 132
78 139
78 142
78 153
78 155
78 172
79 80
79 82
79 84
79 86
79 89
79 91
79 92
79 103
80 82
80 84
80 86
80 89
80 91
80 92
80 103
80 134
81 83
81 119
81 132
81 172
82 84
82 86
82 89
82 91
82 92
82 103
82 134
83 93
83 95
83 96
83 97
83 98
83 104
83 109
83 110
83 114
83 119
83 122
83 132
83 159
83 164
83 172
84 86
84 89
84 91
84 92
84 103
84 107
84 121
84 134
84 167
84 174
85 87
85 88
85 90
85 100
85 102
85 111
85 126
85 139
85 142
85 153
85 155
86 89
86 91
86 92
86 94
86 103
86 113
86 118
86 125
86 128
86 140
86 145
86 160
86 167
86 168
87 88
87 90
87 100
87 102
87 111
87 126
87 139
87 142
87 153
87 155
88 90
88 100
88 102
88 111
88 126
88 139
88 142
88 153
88 155
89 91
89 92
89 94
89 103
89 113
89 118
89 145
89 160
90 100
90 102
90 104
90 111
90 126
90 132
90 134
90 139
90 142
90 144
90 153
90 155
91 92
91 94
91 103
91 118
91 145
91 160
92 94
92 103
92 118
92 134
92 145
92 160
93 95
93 96
93 97
93 98
93 108
93 123
93 124
93 127
93 130
93 141
93 143
93 150
93 152
93 154
93 156
93 157
93 158
93 159
93 161
93 165
93 166
93 170
93 172
94 103
94 118
94 145
94 160
95 96
95 97
95 98
96 97
96 98
96 99
96 101
96 105
96 107
96 135
96 147
96 163
97 98
97 104
97 109
97 110
97 114
97 122
97 140
97 144
97 148
97 159
97 164
97 167
98 108
98 123
98 124
98 150
99 101
99 105
99 107
99 112
99 113
99 115
99 116
99 117
99 119
99 121
99 125
99 127
99 135
99 141
99 143
99 147
99 152
99 154
99 156
99 163
99 166
100 102
100 103
100 106
100 111
100 118
100 126
100 131
100 139
100 142
100 145
100 146
100 153
100 155
100 160
100 162
100 171
101 105
101 107
101 112
101 113
101 115
101 116
101 117
101 119
101 121
101 127
101 135
101 141
101 143
101 147
101 152
101 154
101 156
101 163
101 166
102 103
102 106
102 111
102 118
102 126
102 131
102 139
102 142
102 145
102 146
102 153
102 155
102 160
102 162
102 171
103 106
103 111
103 118
103 126
103 131
103 139
103 142
103 145
103 146
103 153
103 155
103 160
103 162
103 171
104 109
104 110
104 114
104 122
104 125
104 128
104 129
104 132
104 134
104 140
104 144
104 148
104 157
104 159
104 164
104 167
104 168
104 169
105 107
105 112
105 113
105 115
105 116
105 117
105 119
105 121
105 135
105 147
105 163
106 111
106 118
106 126
106 131
106 139
106 142
106 145
106 146
106 153
106 155
106 160
106 162
106 171
107 108
107 112
107 113
107 115
107 116
107 117
107 119
107 121
107 135
107 147
107 157
107 163
107 168
107 169
107 173
107 175
108 121
108 123
108 124
108 150
108 152
108 154
108 156
108 157
108 158
108 161
108 165
108 168
108 169
108 173
108 175
109 110
109 114
109 122
109 159
109 164
110 114
110 122
110 137
110 141
110 143
110 149
110 151
110 159
110 164
111 114
111 118
111 120
111 122
111 123
111 124
111 126
111 131
111 139
111 142
111 145
111 146
111 153
111 155
111 160
111 162
111 171
112 113
112 115
112 116
112 117
112 119
112 121
112 125
112 127
112 141
112 143
112 152
112 154
112 156
112 166
113 115
113 116
113 117
113 119
113 121
113 161
113 170
113 172
114 118
114 120
114 122
114 123
114 124
114 125
114 128
114 129
114 132
114 134
114 140
114 144
114 148
114 157
114 159
114 164
114 167
114 168
114 169
115 116
115 117
115 119
115 121
115 161
115 170
115 172
116 117
116 119
116 121
117 119
117 121
117 132
117 161
117 170
117 172
118 120
118 122
118 123
118 124
118 126
118 131
118 139
118 142
118 145
118 146
118 153
118 155
118 160
118 162
118 171
119 121
119 132
119 161
119 170
119 172
120 122
120 123
120 124
121 157
121 168
121 169
121 173
121 175
122 123
122 124
122 159
122 164
123 124
123 150
124 150
124 152
124 154
124 156
124 157
124 158
124 161
124 165
125 128
125 129
125 132
125 134
125 140
125 144
125 152
125 157
125 166
125 167
125 168
125 169
126 131
126 133
126 135
126 137
126 139
126 142
126 145
126 146
126 147
126 150
126 153
126 155
126 160
126 162
126 171
126 175
127 130
127 136
127 138
127 141
127 143
127 152
127 154
127 156
127 158
127 159
127 161
127 166
127 170
127 172
128 129
128 132
128 134
128 140
128 144
128 157
128 167
128 168
128 169
129 132
129 134
129 140
129 144
129 157
129 167
129 168
129 169
130 136
130 138
130 141
130 143
130 152
130 154
130 156
130 158
130 159
130 161
130 166
130 170
130 172
131 133
131 135
131 137
131 139
131 142
131 145
131 146
131 147
131 150
131 153
131 155
131 160
131 162
131 171
131 175
132 134
132 140
132 144
132 157
132 161
132 167
132 168
132 169
132 170
132 172
133 135
133 137
133 139
133 142
133 145
133 146
133 147
133 150
133 175
134 140
134 144
134 157
134 167
134 168
134 169
135 137
135 139
135 142
135 145
135 146
135 147
135 150
135 163
135 175
136 138
136 149
136 171
136 176
137 141
137 143
137 149
137 151
137 159
137 175
139 142
139 145
139 146
139 147
139 150
139 153
139 155
139 160
139 162
139 171
140 144
140 148
140 157
140 167
140 168
140 169
141 143
141 149
141 151
141 152
141 154
141 156
141 158
141 159
141 161
141 166
141 170
141 172
142 145
142 146
142 147
142 150
142 153
142 155
142 160
142 162
142 171
143 149
143 151
143 152
143 154
143 156
143 158
143 159
143 161
143 166
143 170
143 172
144 148
144 157
144 167
144 168
144 169
145 146
145 147
145 150
145 153
145 155
145 160
145 162
145 171
146 147
146 150
146 153
146 155
146 160
146 162
146 171
147 150
147 163
148 167
149 151
149 159
149 171
149 176
151 159
152 154
152 156
152 157
152 158
152 159
152 161
152 165
152 166
152 170
152 172
153 155
153 159
153 160
153 162
153 163
153 164
153 171
154 156
154 157
154 158
154 159
154 161
154 165
154 166
154 170
154 172
155 159
155 160
155 162
155 163
155 164
155 171
156 157
156 158
156 159
156 161
156 165
156 166
156 170
156 172
157 158
157 161
157 165
157 167
157 168
157 169
157 173
157 175
158 159
158 161
158 165
158 166
158 170
158 172
159 160
159 161
159 162
159 163
159 164
159 166
159 170
159 171
159 172
160 162
160 163
160 164
160 171
161 165
161 166
161 170
161 172
162 163
162 164
162 171
163 164
163 171
164 171
166 170
166 172
167 168
167 169
167 174
168 169
168 173
168 175
169 173
169 175
170 172
171 176
173 175
0
1
2 3
4 5
6
7
8 9
10
11 12
13
14 15
16
17
18
19
20
21 22
23
24
25 26
27
28
29
30
31
32
33 34
35 36
37 38
39
40
41
42
43 44
45
46
47
48
49 50
51 52
53 54
55
56
57
58
59
60 61
62
63
64
65
66
67
68 69
70 71
72
73
74
75 76
77 78
79
80
81
82
83 84
85
86 87
88 89
90 91
92 93
94
95
96
97
98
99 100
101 102
103 104
105
106
107 108
109
110
111 112
113 114
115
116
117 118
119
120
121
122
123
124
125 126
127 128
129
130
131 132
133
134 135
136
137 138
139
140 141
142 143
144
145
146
147
148
149 150
151
152 153
154 155
156
157
158 159
160 161
162
163
164
165
166
167 168
169
170
171 172
173
174 175
176
